unsat
( _c0
  _c1
  _c100
  _c101
  _c102
  _c103
  _c104
  _c106
  _c108
  _c114
  _c115
  _c116
  _c133
  _c136
  _c138
  _c140
  _c141
  _c157
  _c159
  _c160
  _c165
  _c166
  _c172
  _c175
  _c179
  _c182
  _c19
  _c194
  _c195
  _c196
  _c197
  _c198
  _c199
  _c2
  _c20
  _c200
  _c201
  _c202
  _c203
  _c204
  _c205
  _c206
  _c207
  _c208
  _c209
  _c21
  _c22
  _c226
  _c227
  _c228
  _c229
  _c230
  _c231
  _c232
  _c233
  _c234
  _c235
  _c236
  _c237
  _c238
  _c239
  _c24
  _c240
  _c241
  _c242
  _c243
  _c244
  _c245
  _c246
  _c247
  _c248
  _c249
  _c25
  _c250
  _c251
  _c252
  _c253
  _c254
  _c255
  _c256
  _c257
  _c258
  _c259
  _c26
  _c260
  _c261
  _c262
  _c263
  _c264
  _c265
  _c266
  _c267
  _c268
  _c269
  _c270
  _c271
  _c272
  _c273
  _c274
  _c277
  _c285
  _c289
  _c29
  _c290
  _c291
  _c292
  _c293
  _c294
  _c295
  _c296
  _c297
  _c298
  _c299
  _c30
  _c300
  _c301
  _c302
  _c34
  _c35
  _c68
  _c85
  _c86
  _c87
  _c88
  _c89
  _c90
  _c91
  _c92
  _c93
  _c94
  _c95
  _c96
  _c97
  _c98
  _c99 )
